unsat
(:max-memory          18.32
 :memory              18.04
 :nlsat-conflicts     19
 :nlsat-decisions     2
 :nlsat-learned-added 18
 :nlsat-propagations  250
 :nlsat-stages        113
 :num-allocs          31126
 :rlimit-count        20319
 :time                0.01
 :total-time          0.01)
